p cnf 559 1307
a 308 312 330 333 359 484 378 490 496 277 187 190 220 224 513 246 410 413 417 420 529 427 431 434 539 441 445 448 453 456 460 463 7 13 24 30 2 1 40 18 6 12 35 23 29 50 45 60 55 70 65 80 75 85 90 95 105 100 110 115 120 130 125 135 140 145 283 186 150 172 158 154 167 163 181 177 219 201 197 214 205 210 244 231 235 239 266 258 253 262 276 271 307 297 292 288 302 329 319 324 358 345 340 350 354 377 367 372 387 392 396 400 404 0
d 440 2 539 392 396 400 0
d 425 2 529 0
d 409 283 307 329 358 377 0
d 222 201 24 30 7 0
d 284 186 219 244 266 276 0
d 267 496 258 262 2 0
d 245 513 231 235 2 0
d 381 490 2 0
d 362 484 350 354 2 0
d 3 2 0
d 4 1 2 0
d 5 1 2 0
d 8 7 0
d 9 6 7 0
d 10 6 7 0
d 11 1 2 6 7 0
d 14 13 0
d 15 12 13 0
d 16 12 13 0
d 17 1 2 6 7 12 13 0
d 19 6 12 0
d 20 18 6 12 0
d 21 18 6 12 0
d 22 1 2 6 7 12 13 18 0
d 25 24 0
d 26 23 24 0
d 27 23 24 0
d 28 1 2 6 7 12 13 18 23 24 0
d 31 30 0
d 32 29 30 0
d 33 29 30 0
d 34 1 2 6 7 12 13 18 23 24 29 30 0
d 36 23 29 0
d 37 35 23 29 0
d 38 35 23 29 0
d 39 1 2 6 7 12 13 18 23 24 29 30 35 0
d 41 18 35 0
d 42 40 18 35 0
d 43 40 18 35 0
d 44 1 2 6 7 12 13 18 23 24 29 30 35 40 0
d 46 7 12 0
d 47 45 7 12 0
d 48 45 7 12 0
d 49 1 2 6 7 12 13 18 23 24 29 30 35 40 45 0
d 51 45 35 0
d 52 50 45 35 0
d 53 50 45 35 0
d 54 1 2 6 7 12 13 18 23 24 29 30 35 40 45 50 0
d 56 6 13 0
d 57 55 6 13 0
d 58 55 6 13 0
d 59 1 2 6 7 12 13 18 23 24 29 30 35 40 45 50 55 0
d 61 55 35 0
d 62 60 55 35 0
d 63 60 55 35 0
d 64 1 2 6 7 12 13 18 23 24 29 30 35 40 45 50 55 60 0
d 66 7 13 0
d 67 65 7 13 0
d 68 65 7 13 0
d 69 1 2 6 7 12 13 18 23 24 29 30 35 40 45 50 55 60 65 0
d 71 65 35 0
d 72 70 65 35 0
d 73 70 65 35 0
d 74 1 2 6 7 12 13 18 23 24 29 30 35 40 45 50 55 60 65 70 0
d 76 24 29 0
d 77 75 24 29 0
d 78 75 24 29 0
d 79 1 2 6 7 12 13 18 23 24 29 30 35 40 45 50 55 60 65 70 75 0
d 81 18 75 0
d 82 80 18 75 0
d 83 80 18 75 0
d 84 1 2 6 7 12 13 18 23 24 29 30 35 40 45 50 55 60 65 70 75 80 0
d 86 45 75 0
d 87 85 45 75 0
d 88 85 45 75 0
d 89 1 2 6 7 12 13 18 23 24 29 30 35 40 45 50 55 60 65 70 75 80 85 0
d 91 55 75 0
d 92 90 55 75 0
d 93 90 55 75 0
d 94 1 2 6 7 12 13 18 23 24 29 30 35 40 45 50 55 60 65 70 75 80 85 90 0
d 96 65 75 0
d 97 95 65 75 0
d 98 95 65 75 0
d 99 1 2 6 7 12 13 18 23 24 29 30 35 40 45 50 55 60 65 70 75 80 85 90 95 0
d 101 23 30 0
d 102 100 23 30 0
d 103 100 23 30 0
d 104 1 2 6 7 12 13 18 23 24 29 30 35 40 45 50 55 60 65 70 75 80 85 90 95 100 0
d 106 18 100 0
d 107 105 18 100 0
d 108 105 18 100 0
d 109 1 2 6 7 12 13 18 23 24 29 30 35 40 45 50 55 60 65 70 75 80 85 90 95 100 105 0
d 111 45 100 0
d 112 110 45 100 0
d 113 110 45 100 0
d 114 1 2 6 7 12 13 18 23 24 29 30 35 40 45 50 55 60 65 70 75 80 85 90 95 100 105 110 0
d 116 55 100 0
d 117 115 55 100 0
d 118 115 55 100 0
d 119 1 2 6 7 12 13 18 23 24 29 30 35 40 45 50 55 60 65 70 75 80 85 90 95 100 105 110 115 0
d 121 65 100 0
d 122 120 65 100 0
d 123 120 65 100 0
d 124 1 2 6 7 12 13 18 23 24 29 30 35 40 45 50 55 60 65 70 75 80 85 90 95 100 105 110 115 120 0
d 126 24 30 0
d 127 125 24 30 0
d 128 125 24 30 0
d 129 1 2 6 7 12 13 18 23 24 29 30 35 40 45 50 55 60 65 70 75 80 85 90 95 100 105 110 115 120 125 0
d 131 18 125 0
d 132 130 18 125 0
d 133 130 18 125 0
d 134 1 2 6 7 12 13 18 23 24 29 30 35 40 45 50 55 60 65 70 75 80 85 90 95 100 105 110 115 120 125 130 0
d 136 45 125 0
d 137 135 45 125 0
d 138 135 45 125 0
d 139 1 2 6 7 12 13 18 23 24 29 30 35 40 45 50 55 60 65 70 75 80 85 90 95 100 105 110 115 120 125 130 135 0
d 141 55 125 0
d 142 140 55 125 0
d 143 140 55 125 0
d 144 1 2 6 7 12 13 18 23 24 29 30 35 40 45 50 55 60 65 70 75 80 85 90 95 100 105 110 115 120 125 130 135 140 0
d 146 65 125 0
d 147 145 65 125 0
d 148 145 65 125 0
d 149 1 2 6 7 12 13 18 23 24 29 30 35 40 45 50 55 60 65 70 75 80 85 90 95 100 105 110 115 120 125 130 135 140 145 0
d 151 150 2 0
d 152 150 2 0
d 153 1 2 6 7 12 13 18 23 24 29 30 35 40 45 50 55 60 65 70 75 80 85 90 95 100 105 110 115 120 125 130 135 140 145 150 0
d 155 154 7 0
d 156 154 7 0
d 157 1 2 6 7 12 13 18 23 24 29 30 35 40 45 50 55 60 65 70 75 80 85 90 95 100 105 110 115 120 125 130 135 140 145 150 154 0
d 159 154 13 0
d 160 158 154 13 0
d 161 158 154 13 0
d 162 1 2 6 7 12 13 18 23 24 29 30 35 40 45 50 55 60 65 70 75 80 85 90 95 100 105 110 115 120 125 130 135 140 145 150 154 158 0
d 164 163 24 0
d 165 163 24 0
d 166 1 2 6 7 12 13 18 23 24 29 30 35 40 45 50 55 60 65 70 75 80 85 90 95 100 105 110 115 120 125 130 135 140 145 150 154 158 163 0
d 168 163 30 0
d 169 167 163 30 0
d 170 167 163 30 0
d 171 1 2 6 7 12 13 18 23 24 29 30 35 40 45 50 55 60 65 70 75 80 85 90 95 100 105 110 115 120 125 130 135 140 145 150 154 158 163 167 0
d 173 158 167 0
d 174 172 158 167 0
d 175 172 158 167 0
d 176 1 2 6 7 12 13 18 23 24 29 30 35 40 45 50 55 60 65 70 75 80 85 90 95 100 105 110 115 120 125 130 135 140 145 150 154 158 163 167 172 0
d 178 177 7 13 0
d 179 177 7 13 0
d 180 1 2 6 7 12 13 18 23 24 29 30 35 40 45 50 55 60 65 70 75 80 85 90 95 100 105 110 115 120 125 130 135 140 145 150 154 158 163 167 172 177 0
d 182 177 167 0
d 183 181 177 167 0
d 184 181 177 167 0
d 185 1 2 6 7 12 13 18 23 24 29 30 35 40 45 50 55 60 65 70 75 80 85 90 95 100 105 110 115 120 125 130 135 140 145 150 154 158 163 167 172 177 181 0
d 188 150 187 0
d 189 150 187 172 0
d 191 150 190 0
d 192 150 190 181 0
d 193 150 187 172 190 181 0
d 194 186 150 187 172 190 181 0
d 195 186 150 187 172 190 181 0
d 196 1 2 6 7 12 13 18 23 24 29 30 35 40 45 50 55 60 65 70 75 80 85 90 95 100 105 110 115 120 125 130 135 140 145 150 154 158 163 167 172 177 181 186 187 190 0
d 198 197 13 0
d 199 197 13 0
d 200 1 2 6 7 12 13 18 23 24 29 30 35 40 45 50 55 60 65 70 75 80 85 90 95 100 105 110 115 120 125 130 135 140 145 150 154 158 163 167 172 177 181 186 187 190 197 0
d 202 201 197 0
d 203 201 197 0
d 204 1 2 6 7 12 13 18 23 24 29 30 35 40 45 50 55 60 65 70 75 80 85 90 95 100 105 110 115 120 125 130 135 140 145 150 154 158 163 167 172 177 181 186 187 190 197 201 0
d 206 7 197 0
d 207 205 7 197 0
d 208 205 7 197 0
d 209 1 2 6 7 12 13 18 23 24 29 30 35 40 45 50 55 60 65 70 75 80 85 90 95 100 105 110 115 120 125 130 135 140 145 150 154 158 163 167 172 177 181 186 187 190 197 201 205 0
d 211 210 24 30 0
d 212 210 24 30 0
d 213 1 2 6 7 12 13 18 23 24 29 30 35 40 45 50 55 60 65 70 75 80 85 90 95 100 105 110 115 120 125 130 135 140 145 150 154 158 163 167 172 177 181 186 187 190 197 201 205 210 0
d 215 205 210 0
d 216 214 205 210 0
d 217 214 205 210 0
d 218 1 2 6 7 12 13 18 23 24 29 30 35 40 45 50 55 60 65 70 75 80 85 90 95 100 105 110 115 120 125 130 135 140 145 150 154 158 163 167 172 177 181 186 187 190 197 201 205 210 214 0
d 221 150 220 0
d 223 150 220 201 24 30 7 0
d 225 150 224 0
d 226 150 224 214 0
d 227 150 220 201 24 30 7 224 214 0
d 228 219 150 220 201 24 30 7 224 214 0
d 229 219 150 220 201 24 30 7 224 214 0
d 230 1 2 6 7 12 13 18 23 24 29 30 35 40 45 50 55 60 65 70 75 80 85 90 95 100 105 110 115 120 125 130 135 140 145 150 154 158 163 167 172 177 181 186 187 190 197 201 205 210 214 219 220 224 0
d 232 231 158 0
d 233 231 158 0
d 234 1 2 6 7 12 13 18 23 24 29 30 35 40 45 50 55 60 65 70 75 80 85 90 95 100 105 110 115 120 125 130 135 140 145 150 154 158 163 167 172 177 181 186 187 190 197 201 205 210 214 219 220 224 231 0
d 236 235 210 0
d 237 235 210 0
d 238 1 2 6 7 12 13 18 23 24 29 30 35 40 45 50 55 60 65 70 75 80 85 90 95 100 105 110 115 120 125 130 135 140 145 150 154 158 163 167 172 177 181 186 187 190 197 201 205 210 214 219 220 224 231 235 0
d 240 177 210 0
d 241 239 177 210 0
d 242 239 177 210 0
d 243 1 2 6 7 12 13 18 23 24 29 30 35 40 45 50 55 60 65 70 75 80 85 90 95 100 105 110 115 120 125 130 135 140 145 150 154 158 163 167 172 177 181 186 187 190 197 201 205 210 214 219 220 224 231 235 239 0
d 247 150 246 0
d 248 150 246 239 0
d 249 513 231 235 2 150 246 239 0
d 250 244 513 231 235 2 150 246 239 0
d 251 244 513 231 235 2 150 246 239 0
d 252 1 2 6 7 12 13 18 23 24 29 30 35 40 45 50 55 60 65 70 75 80 85 90 95 100 105 110 115 120 125 130 135 140 145 150 154 158 163 167 172 177 181 186 187 190 197 201 205 210 214 219 220 224 231 235 239 244 513 246 0
d 254 154 197 0
d 255 253 154 197 0
d 256 253 154 197 0
d 257 1 2 6 7 12 13 18 23 24 29 30 35 40 45 50 55 60 65 70 75 80 85 90 95 100 105 110 115 120 125 130 135 140 145 150 154 158 163 167 172 177 181 186 187 190 197 201 205 210 214 219 220 224 231 235 239 244 513 246 253 0
d 259 258 253 0
d 260 258 253 0
d 261 1 2 6 7 12 13 18 23 24 29 30 35 40 45 50 55 60 65 70 75 80 85 90 95 100 105 110 115 120 125 130 135 140 145 150 154 158 163 167 172 177 181 186 187 190 197 201 205 210 214 219 220 224 231 235 239 244 513 246 253 258 0
d 263 262 167 0
d 264 262 167 0
d 265 1 2 6 7 12 13 18 23 24 29 30 35 40 45 50 55 60 65 70 75 80 85 90 95 100 105 110 115 120 125 130 135 140 145 150 154 158 163 167 172 177 181 186 187 190 197 201 205 210 214 219 220 224 231 235 239 244 513 246 253 258 262 0
d 268 266 496 258 262 2 0
d 269 266 496 258 262 2 0
d 270 1 2 6 7 12 13 18 23 24 29 30 35 40 45 50 55 60 65 70 75 80 85 90 95 100 105 110 115 120 125 130 135 140 145 150 154 158 163 167 172 177 181 186 187 190 197 201 205 210 214 219 220 224 231 235 239 244 513 246 253 258 262 266 496 0
d 272 205 167 0
d 273 271 205 167 0
d 274 271 205 167 0
d 275 1 2 6 7 12 13 18 23 24 29 30 35 40 45 50 55 60 65 70 75 80 85 90 95 100 105 110 115 120 125 130 135 140 145 150 154 158 163 167 172 177 181 186 187 190 197 201 205 210 214 219 220 224 231 235 239 244 513 246 253 258 262 266 496 271 0
d 278 150 277 0
d 279 150 277 271 0
d 280 276 150 277 271 0
d 281 276 150 277 271 0
d 282 1 2 6 7 12 13 18 23 24 29 30 35 40 45 50 55 60 65 70 75 80 85 90 95 100 105 110 115 120 125 130 135 140 145 150 154 158 163 167 172 177 181 186 187 190 197 201 205 210 214 219 220 224 231 235 239 244 513 246 253 258 262 266 496 271 276 277 0
d 285 283 186 219 244 266 276 0
d 286 283 186 219 244 266 276 0
d 287 1 2 6 7 12 13 18 23 24 29 30 35 40 45 50 55 60 65 70 75 80 85 90 95 100 105 110 115 120 125 130 135 140 145 150 154 158 163 167 172 177 181 186 187 190 197 201 205 210 214 219 220 224 231 235 239 244 513 246 253 258 262 266 496 271 276 277 283 0
d 289 288 30 0
d 290 288 30 0
d 291 1 2 6 7 12 13 18 23 24 29 30 35 40 45 50 55 60 65 70 75 80 85 90 95 100 105 110 115 120 125 130 135 140 145 150 154 158 163 167 172 177 181 186 187 190 197 201 205 210 214 219 220 224 231 235 239 244 513 246 253 258 262 266 496 271 276 277 283 288 0
d 293 163 288 0
d 294 292 163 288 0
d 295 292 163 288 0
d 296 1 2 6 7 12 13 18 23 24 29 30 35 40 45 50 55 60 65 70 75 80 85 90 95 100 105 110 115 120 125 130 135 140 145 150 154 158 163 167 172 177 181 186 187 190 197 201 205 210 214 219 220 224 231 235 239 244 513 246 253 258 262 266 496 271 276 277 283 288 292 0
d 298 253 292 0
d 299 297 253 292 0
d 300 297 253 292 0
d 301 1 2 6 7 12 13 18 23 24 29 30 35 40 45 50 55 60 65 70 75 80 85 90 95 100 105 110 115 120 125 130 135 140 145 150 154 158 163 167 172 177 181 186 187 190 197 201 205 210 214 219 220 224 231 235 239 244 513 246 253 258 262 266 496 271 276 277 283 288 292 297 0
d 303 205 292 0
d 304 302 205 292 0
d 305 302 205 292 0
d 306 1 2 6 7 12 13 18 23 24 29 30 35 40 45 50 55 60 65 70 75 80 85 90 95 100 105 110 115 120 125 130 135 140 145 150 154 158 163 167 172 177 181 186 187 190 197 201 205 210 214 219 220 224 231 235 239 244 513 246 253 258 262 266 496 271 276 277 283 288 292 297 302 0
d 309 150 308 0
d 310 150 308 297 0
d 311 150 308 297 0
d 313 150 312 0
d 314 150 312 302 0
d 315 150 308 297 312 302 0
d 316 307 150 308 297 312 302 0
d 317 307 150 308 297 312 302 0
d 318 1 2 6 7 12 13 18 23 24 29 30 35 40 45 50 55 60 65 70 75 80 85 90 95 100 105 110 115 120 125 130 135 140 145 150 154 158 163 167 172 177 181 186 187 190 197 201 205 210 214 219 220 224 231 235 239 244 513 246 253 258 262 266 496 271 276 277 283 288 292 297 302 307 308 312 0
d 320 158 292 0
d 321 319 158 292 0
d 322 319 158 292 0
d 323 1 2 6 7 12 13 18 23 24 29 30 35 40 45 50 55 60 65 70 75 80 85 90 95 100 105 110 115 120 125 130 135 140 145 150 154 158 163 167 172 177 181 186 187 190 197 201 205 210 214 219 220 224 231 235 239 244 513 246 253 258 262 266 496 271 276 277 283 288 292 297 302 307 308 312 319 0
d 325 177 292 0
d 326 324 177 292 0
d 327 324 177 292 0
d 328 1 2 6 7 12 13 18 23 24 29 30 35 40 45 50 55 60 65 70 75 80 85 90 95 100 105 110 115 120 125 130 135 140 145 150 154 158 163 167 172 177 181 186 187 190 197 201 205 210 214 219 220 224 231 235 239 244 513 246 253 258 262 266 496 271 276 277 283 288 292 297 302 307 308 312 319 324 0
d 331 150 330 0
d 332 150 330 319 0
d 334 150 333 0
d 335 150 333 324 0
d 336 150 330 319 333 324 0
d 337 329 150 330 319 333 324 0
d 338 329 150 330 319 333 324 0
d 339 1 2 6 7 12 13 18 23 24 29 30 35 40 45 50 55 60 65 70 75 80 85 90 95 100 105 110 115 120 125 130 135 140 145 150 154 158 163 167 172 177 181 186 187 190 197 201 205 210 214 219 220 224 231 235 239 244 513 246 253 258 262 266 496 271 276 277 283 288 292 297 302 307 308 312 319 324 329 330 333 0
d 341 24 288 0
d 342 340 24 288 0
d 343 340 24 288 0
d 344 1 2 6 7 12 13 18 23 24 29 30 35 40 45 50 55 60 65 70 75 80 85 90 95 100 105 110 115 120 125 130 135 140 145 150 154 158 163 167 172 177 181 186 187 190 197 201 205 210 214 219 220 224 231 235 239 244 513 246 253 258 262 266 496 271 276 277 283 288 292 297 302 307 308 312 319 324 329 330 333 340 0
d 346 253 340 0
d 347 345 253 340 0
d 348 345 253 340 0
d 349 1 2 6 7 12 13 18 23 24 29 30 35 40 45 50 55 60 65 70 75 80 85 90 95 100 105 110 115 120 125 130 135 140 145 150 154 158 163 167 172 177 181 186 187 190 197 201 205 210 214 219 220 224 231 235 239 244 513 246 253 258 262 266 496 271 276 277 283 288 292 297 302 307 308 312 319 324 329 330 333 340 345 0
d 351 350 205 0
d 352 350 205 0
d 353 1 2 6 7 12 13 18 23 24 29 30 35 40 45 50 55 60 65 70 75 80 85 90 95 100 105 110 115 120 125 130 135 140 145 150 154 158 163 167 172 177 181 186 187 190 197 201 205 210 214 219 220 224 231 235 239 244 513 246 253 258 262 266 496 271 276 277 283 288 292 297 302 307 308 312 319 324 329 330 333 340 345 350 0
d 355 354 340 0
d 356 354 340 0
d 357 1 2 6 7 12 13 18 23 24 29 30 35 40 45 50 55 60 65 70 75 80 85 90 95 100 105 110 115 120 125 130 135 140 145 150 154 158 163 167 172 177 181 186 187 190 197 201 205 210 214 219 220 224 231 235 239 244 513 246 253 258 262 266 496 271 276 277 283 288 292 297 302 307 308 312 319 324 329 330 333 340 345 350 354 0
d 360 150 359 0
d 361 150 359 345 0
d 363 150 359 345 484 350 354 2 0
d 364 358 150 359 345 484 350 354 2 0
d 365 358 150 359 345 484 350 354 2 0
d 366 1 2 6 7 12 13 18 23 24 29 30 35 40 45 50 55 60 65 70 75 80 85 90 95 100 105 110 115 120 125 130 135 140 145 150 154 158 163 167 172 177 181 186 187 190 197 201 205 210 214 219 220 224 231 235 239 244 513 246 253 258 262 266 496 271 276 277 283 288 292 297 302 307 308 312 319 324 329 330 333 340 345 350 354 358 359 484 0
d 368 158 340 0
d 369 367 158 340 0
d 370 367 158 340 0
d 371 1 2 6 7 12 13 18 23 24 29 30 35 40 45 50 55 60 65 70 75 80 85 90 95 100 105 110 115 120 125 130 135 140 145 150 154 158 163 167 172 177 181 186 187 190 197 201 205 210 214 219 220 224 231 235 239 244 513 246 253 258 262 266 496 271 276 277 283 288 292 297 302 307 308 312 319 324 329 330 333 340 345 350 354 358 359 484 367 0
d 373 177 340 0
d 374 372 177 340 0
d 375 372 177 340 0
d 376 1 2 6 7 12 13 18 23 24 29 30 35 40 45 50 55 60 65 70 75 80 85 90 95 100 105 110 115 120 125 130 135 140 145 150 154 158 163 167 172 177 181 186 187 190 197 201 205 210 214 219 220 224 231 235 239 244 513 246 253 258 262 266 496 271 276 277 283 288 292 297 302 307 308 312 319 324 329 330 333 340 345 350 354 358 359 484 367 372 0
d 379 150 378 0
d 380 150 378 367 0
d 382 490 2 372 0
d 383 150 378 367 490 2 372 0
d 384 377 150 378 367 490 2 372 0
d 385 377 150 378 367 490 2 372 0
d 386 1 2 6 7 12 13 18 23 24 29 30 35 40 45 50 55 60 65 70 75 80 85 90 95 100 105 110 115 120 125 130 135 140 145 150 154 158 163 167 172 177 181 186 187 190 197 201 205 210 214 219 220 224 231 235 239 244 513 246 253 258 262 266 496 271 276 277 283 288 292 297 302 307 308 312 319 324 329 330 333 340 345 350 354 358 359 484 367 372 377 378 490 0
d 388 205 340 0
d 389 387 205 340 0
d 390 387 205 340 0
d 391 1 2 6 7 12 13 18 23 24 29 30 35 40 45 50 55 60 65 70 75 80 85 90 95 100 105 110 115 120 125 130 135 140 145 150 154 158 163 167 172 177 181 186 187 190 197 201 205 210 214 219 220 224 231 235 239 244 513 246 253 258 262 266 496 271 276 277 283 288 292 297 302 307 308 312 319 324 329 330 333 340 345 350 354 358 359 484 367 372 377 378 490 387 0
d 393 392 167 0
d 394 392 167 0
d 395 1 2 6 7 12 13 18 23 24 29 30 35 40 45 50 55 60 65 70 75 80 85 90 95 100 105 110 115 120 125 130 135 140 145 150 154 158 163 167 172 177 181 186 187 190 197 201 205 210 214 219 220 224 231 235 239 244 513 246 253 258 262 266 496 271 276 277 283 288 292 297 302 307 308 312 319 324 329 330 333 340 345 350 354 358 359 484 367 372 377 378 490 387 392 0
d 397 396 154 0
d 398 396 154 0
d 399 1 2 6 7 12 13 18 23 24 29 30 35 40 45 50 55 60 65 70 75 80 85 90 95 100 105 110 115 120 125 130 135 140 145 150 154 158 163 167 172 177 181 186 187 190 197 201 205 210 214 219 220 224 231 235 239 244 513 246 253 258 262 266 496 271 276 277 283 288 292 297 302 307 308 312 319 324 329 330 333 340 345 350 354 358 359 484 367 372 377 378 490 387 392 396 0
d 401 400 197 0
d 402 400 197 0
d 403 1 2 6 7 12 13 18 23 24 29 30 35 40 45 50 55 60 65 70 75 80 85 90 95 100 105 110 115 120 125 130 135 140 145 150 154 158 163 167 172 177 181 186 187 190 197 201 205 210 214 219 220 224 231 235 239 244 513 246 253 258 262 266 496 271 276 277 283 288 292 297 302 307 308 312 319 324 329 330 333 340 345 350 354 358 359 484 367 372 377 378 490 387 392 396 400 0
d 405 158 210 0
d 406 404 158 210 0
d 407 404 158 210 0
d 408 1 2 6 7 12 13 18 23 24 29 30 35 40 45 50 55 60 65 70 75 80 85 90 95 100 105 110 115 120 125 130 135 140 145 150 154 158 163 167 172 177 181 186 187 190 197 201 205 210 214 219 220 224 231 235 239 244 513 246 253 258 262 266 496 271 276 277 283 288 292 297 302 307 308 312 319 324 329 330 333 340 345 350 354 358 359 484 367 372 377 378 490 387 392 396 400 404 0
d 411 2 410 0
d 412 2 410 297 0
d 414 2 413 0
d 415 2 413 302 0
d 416 2 410 297 413 302 0
d 418 2 417 0
d 419 2 417 319 0
d 421 2 420 0
d 422 2 420 324 0
d 423 2 417 319 420 324 0
d 424 2 410 297 413 302 417 319 420 324 0
d 426 2 529 345 0
d 428 2 427 0
d 429 2 427 387 0
d 430 2 529 345 427 387 0
d 432 2 431 0
d 433 2 431 367 0
d 435 2 434 0
d 436 2 434 372 0
d 437 2 431 367 434 372 0
d 438 2 529 345 427 387 431 367 434 372 0
d 439 2 410 297 413 302 417 319 420 324 529 345 427 387 431 367 434 372 0
d 442 2 441 0
d 443 2 441 271 0
d 444 2 539 392 396 400 441 271 0
d 446 2 445 0
d 447 2 445 172 0
d 449 2 448 0
d 450 2 448 181 0
d 451 2 445 172 448 181 0
d 452 2 539 392 396 400 441 271 445 172 448 181 0
d 454 2 453 0
d 455 2 453 201 24 30 7 0
d 457 2 456 0
d 458 2 456 214 0
d 459 2 453 201 24 30 7 456 214 0
d 461 2 460 0
d 462 2 460 404 0
d 464 2 463 0
d 465 2 463 239 0
d 466 2 460 404 463 239 0
d 467 2 453 201 24 30 7 456 214 460 404 463 239 0
d 468 2 539 392 396 400 441 271 445 172 448 181 453 201 24 30 7 456 214 460 404 463 239 0
d 469 2 410 297 413 302 417 319 420 324 529 345 427 387 431 367 434 372 539 392 396 400 441 271 445 172 448 181 453 201 24 30 7 456 214 460 404 463 239 0
d 470 283 307 329 358 377 2 410 297 413 302 417 319 420 324 529 345 427 387 431 367 434 372 539 392 396 400 441 271 445 172 448 181 453 201 24 30 7 456 214 460 404 463 239 0
d 471 1 308 0
d 472 1 308 40 0
d 473 1 312 0
d 474 1 312 50 0
d 475 1 308 40 312 50 0
d 476 1 330 0
d 477 1 330 60 0
d 478 1 333 0
d 479 1 333 70 0
d 480 1 330 60 333 70 0
d 481 1 308 40 312 50 330 60 333 70 0
d 482 1 359 0
d 483 1 359 80 0
d 485 1 484 0
d 486 1 484 85 0
d 487 1 359 80 484 85 0
d 488 1 378 0
d 489 1 378 90 0
d 491 1 490 0
d 492 1 490 95 0
d 493 1 378 90 490 95 0
d 494 1 359 80 484 85 378 90 490 95 0
d 495 1 308 40 312 50 330 60 333 70 359 80 484 85 378 90 490 95 0
d 497 1 496 0
d 498 1 496 105 0
d 499 1 277 0
d 500 1 277 110 0
d 501 1 496 105 277 110 0
d 502 1 187 0
d 503 1 187 115 0
d 504 1 190 0
d 505 1 190 120 0
d 506 1 187 115 190 120 0
d 507 1 496 105 277 110 187 115 190 120 0
d 508 1 220 0
d 509 1 220 130 0
d 510 1 224 0
d 511 1 224 135 0
d 512 1 220 130 224 135 0
d 514 1 513 0
d 515 1 513 140 0
d 516 1 246 0
d 517 1 246 145 0
d 518 1 513 140 246 145 0
d 519 1 220 130 224 135 513 140 246 145 0
d 520 1 496 105 277 110 187 115 190 120 220 130 224 135 513 140 246 145 0
d 521 1 308 40 312 50 330 60 333 70 359 80 484 85 378 90 490 95 496 105 277 110 187 115 190 120 220 130 224 135 513 140 246 145 0
d 522 2 410 40 0
d 523 2 413 50 0
d 524 2 410 40 413 50 0
d 525 2 417 60 0
d 526 2 420 70 0
d 527 2 417 60 420 70 0
d 528 2 410 40 413 50 417 60 420 70 0
d 530 2 529 0
d 531 2 529 80 0
d 532 2 427 85 0
d 533 2 529 80 427 85 0
d 534 2 431 90 0
d 535 2 434 95 0
d 536 2 431 90 434 95 0
d 537 2 529 80 427 85 431 90 434 95 0
d 538 2 410 40 413 50 417 60 420 70 529 80 427 85 431 90 434 95 0
d 540 2 539 0
d 541 2 539 105 0
d 542 2 441 110 0
d 543 2 539 105 441 110 0
d 544 2 445 115 0
d 545 2 448 120 0
d 546 2 445 115 448 120 0
d 547 2 539 105 441 110 445 115 448 120 0
d 548 2 453 130 0
d 549 2 456 135 0
d 550 2 453 130 456 135 0
d 551 2 460 140 0
d 552 2 463 145 0
d 553 2 460 140 463 145 0
d 554 2 453 130 456 135 460 140 463 145 0
d 555 2 539 105 441 110 445 115 448 120 453 130 456 135 460 140 463 145 0
d 556 2 410 40 413 50 417 60 420 70 529 80 427 85 431 90 434 95 539 105 441 110 445 115 448 120 453 130 456 135 460 140 463 145 0
d 557 1 308 40 312 50 330 60 333 70 359 80 484 85 378 90 490 95 496 105 277 110 187 115 190 120 220 130 224 135 513 140 246 145 2 410 413 417 420 529 427 431 434 539 441 445 448 453 456 460 463 0
d 558 283 307 329 358 377 2 410 297 413 302 417 319 420 324 529 345 427 387 431 367 434 372 539 392 396 400 441 271 445 172 448 181 453 201 24 30 7 456 214 460 404 463 239 1 308 40 312 50 330 60 333 70 359 80 484 85 378 90 490 95 496 105 277 110 187 115 190 120 220 130 224 135 513 140 246 145 0
d 559 1 2 6 7 12 13 18 23 24 29 30 35 40 45 50 55 60 65 70 75 80 85 90 95 100 105 110 115 120 125 130 135 140 145 150 154 158 163 167 172 177 181 186 187 190 197 201 205 210 214 219 220 224 231 235 239 244 513 246 253 258 262 266 496 271 276 277 283 288 292 297 302 307 308 312 319 324 329 330 333 340 345 350 354 358 359 484 367 372 377 378 490 387 392 396 400 404 410 413 417 420 529 427 431 434 539 441 445 448 453 456 460 463 0
3 2 0
-3 -2 0
4 -1 -3 0
4 1 3 0
-4 -1 3 0
-4 1 -3 0
5 4 0
-5 -4 0
8 7 0
-8 -7 0
9 -6 -8 0
9 6 8 0
-9 -6 8 0
-9 6 -8 0
10 9 0
-10 -9 0
11 -5 0
11 -10 0
-11 5 10 0
14 13 0
-14 -13 0
15 -12 -14 0
15 12 14 0
-15 -12 14 0
-15 12 -14 0
16 15 0
-16 -15 0
17 -11 0
17 -16 0
-17 11 16 0
-19 6 0
-19 12 0
19 -6 -12 0
20 -18 -19 0
20 18 19 0
-20 -18 19 0
-20 18 -19 0
21 20 0
-21 -20 0
22 -17 0
22 -21 0
-22 17 21 0
25 24 0
-25 -24 0
26 -23 -25 0
26 23 25 0
-26 -23 25 0
-26 23 -25 0
27 26 0
-27 -26 0
28 -22 0
28 -27 0
-28 22 27 0
31 30 0
-31 -30 0
32 -29 -31 0
32 29 31 0
-32 -29 31 0
-32 29 -31 0
33 32 0
-33 -32 0
34 -28 0
34 -33 0
-34 28 33 0
-36 23 0
-36 29 0
36 -23 -29 0
37 -35 -36 0
37 35 36 0
-37 -35 36 0
-37 35 -36 0
38 37 0
-38 -37 0
39 -34 0
39 -38 0
-39 34 38 0
-41 18 0
-41 35 0
41 -18 -35 0
42 -40 -41 0
42 40 41 0
-42 -40 41 0
-42 40 -41 0
43 42 0
-43 -42 0
44 -39 0
44 -43 0
-44 39 43 0
-46 7 0
-46 12 0
46 -7 -12 0
47 -45 -46 0
47 45 46 0
-47 -45 46 0
-47 45 -46 0
48 47 0
-48 -47 0
49 -44 0
49 -48 0
-49 44 48 0
-51 45 0
-51 35 0
51 -45 -35 0
52 -50 -51 0
52 50 51 0
-52 -50 51 0
-52 50 -51 0
53 52 0
-53 -52 0
54 -49 0
54 -53 0
-54 49 53 0
-56 6 0
-56 13 0
56 -6 -13 0
57 -55 -56 0
57 55 56 0
-57 -55 56 0
-57 55 -56 0
58 57 0
-58 -57 0
59 -54 0
59 -58 0
-59 54 58 0
-61 55 0
-61 35 0
61 -55 -35 0
62 -60 -61 0
62 60 61 0
-62 -60 61 0
-62 60 -61 0
63 62 0
-63 -62 0
64 -59 0
64 -63 0
-64 59 63 0
-66 7 0
-66 13 0
66 -7 -13 0
67 -65 -66 0
67 65 66 0
-67 -65 66 0
-67 65 -66 0
68 67 0
-68 -67 0
69 -64 0
69 -68 0
-69 64 68 0
-71 65 0
-71 35 0
71 -65 -35 0
72 -70 -71 0
72 70 71 0
-72 -70 71 0
-72 70 -71 0
73 72 0
-73 -72 0
74 -69 0
74 -73 0
-74 69 73 0
-76 24 0
-76 29 0
76 -24 -29 0
77 -75 -76 0
77 75 76 0
-77 -75 76 0
-77 75 -76 0
78 77 0
-78 -77 0
79 -74 0
79 -78 0
-79 74 78 0
-81 18 0
-81 75 0
81 -18 -75 0
82 -80 -81 0
82 80 81 0
-82 -80 81 0
-82 80 -81 0
83 82 0
-83 -82 0
84 -79 0
84 -83 0
-84 79 83 0
-86 45 0
-86 75 0
86 -45 -75 0
87 -85 -86 0
87 85 86 0
-87 -85 86 0
-87 85 -86 0
88 87 0
-88 -87 0
89 -84 0
89 -88 0
-89 84 88 0
-91 55 0
-91 75 0
91 -55 -75 0
92 -90 -91 0
92 90 91 0
-92 -90 91 0
-92 90 -91 0
93 92 0
-93 -92 0
94 -89 0
94 -93 0
-94 89 93 0
-96 65 0
-96 75 0
96 -65 -75 0
97 -95 -96 0
97 95 96 0
-97 -95 96 0
-97 95 -96 0
98 97 0
-98 -97 0
99 -94 0
99 -98 0
-99 94 98 0
-101 23 0
-101 30 0
101 -23 -30 0
102 -100 -101 0
102 100 101 0
-102 -100 101 0
-102 100 -101 0
103 102 0
-103 -102 0
104 -99 0
104 -103 0
-104 99 103 0
-106 18 0
-106 100 0
106 -18 -100 0
107 -105 -106 0
107 105 106 0
-107 -105 106 0
-107 105 -106 0
108 107 0
-108 -107 0
109 -104 0
109 -108 0
-109 104 108 0
-111 45 0
-111 100 0
111 -45 -100 0
112 -110 -111 0
112 110 111 0
-112 -110 111 0
-112 110 -111 0
113 112 0
-113 -112 0
114 -109 0
114 -113 0
-114 109 113 0
-116 55 0
-116 100 0
116 -55 -100 0
117 -115 -116 0
117 115 116 0
-117 -115 116 0
-117 115 -116 0
118 117 0
-118 -117 0
119 -114 0
119 -118 0
-119 114 118 0
-121 65 0
-121 100 0
121 -65 -100 0
122 -120 -121 0
122 120 121 0
-122 -120 121 0
-122 120 -121 0
123 122 0
-123 -122 0
124 -119 0
124 -123 0
-124 119 123 0
-126 24 0
-126 30 0
126 -24 -30 0
127 -125 -126 0
127 125 126 0
-127 -125 126 0
-127 125 -126 0
128 127 0
-128 -127 0
129 -124 0
129 -128 0
-129 124 128 0
-131 18 0
-131 125 0
131 -18 -125 0
132 -130 -131 0
132 130 131 0
-132 -130 131 0
-132 130 -131 0
133 132 0
-133 -132 0
134 -129 0
134 -133 0
-134 129 133 0
-136 45 0
-136 125 0
136 -45 -125 0
137 -135 -136 0
137 135 136 0
-137 -135 136 0
-137 135 -136 0
138 137 0
-138 -137 0
139 -134 0
139 -138 0
-139 134 138 0
-141 55 0
-141 125 0
141 -55 -125 0
142 -140 -141 0
142 140 141 0
-142 -140 141 0
-142 140 -141 0
143 142 0
-143 -142 0
144 -139 0
144 -143 0
-144 139 143 0
-146 65 0
-146 125 0
146 -65 -125 0
147 -145 -146 0
147 145 146 0
-147 -145 146 0
-147 145 -146 0
148 147 0
-148 -147 0
149 -144 0
149 -148 0
-149 144 148 0
151 -150 -3 0
151 150 3 0
-151 -150 3 0
-151 150 -3 0
152 151 0
-152 -151 0
153 -149 0
153 -152 0
-153 149 152 0
155 -154 -8 0
155 154 8 0
-155 -154 8 0
-155 154 -8 0
156 155 0
-156 -155 0
157 -153 0
157 -156 0
-157 153 156 0
-159 154 0
-159 13 0
159 -154 -13 0
160 -158 -159 0
160 158 159 0
-160 -158 159 0
-160 158 -159 0
161 160 0
-161 -160 0
162 -157 0
162 -161 0
-162 157 161 0
164 -163 -25 0
164 163 25 0
-164 -163 25 0
-164 163 -25 0
165 164 0
-165 -164 0
166 -162 0
166 -165 0
-166 162 165 0
-168 163 0
-168 30 0
168 -163 -30 0
169 -167 -168 0
169 167 168 0
-169 -167 168 0
-169 167 -168 0
170 169 0
-170 -169 0
171 -166 0
171 -170 0
-171 166 170 0
-173 158 0
-173 167 0
173 -158 -167 0
174 -172 -173 0
174 172 173 0
-174 -172 173 0
-174 172 -173 0
175 174 0
-175 -174 0
176 -171 0
176 -175 0
-176 171 175 0
178 -177 -66 0
178 177 66 0
-178 -177 66 0
-178 177 -66 0
179 178 0
-179 -178 0
180 -176 0
180 -179 0
-180 176 179 0
-182 177 0
-182 167 0
182 -177 -167 0
183 -181 -182 0
183 181 182 0
-183 -181 182 0
-183 181 -182 0
184 183 0
-184 -183 0
185 -180 0
185 -184 0
-185 180 184 0
-188 150 0
-188 187 0
188 -150 -187 0
-189 188 0
-189 172 0
189 -188 -172 0
-191 150 0
-191 190 0
191 -150 -190 0
-192 191 0
-192 181 0
192 -191 -181 0
193 -189 0
193 -192 0
-193 189 192 0
194 -186 -193 0
194 186 193 0
-194 -186 193 0
-194 186 -193 0
195 194 0
-195 -194 0
196 -185 0
196 -195 0
-196 185 195 0
198 -197 -14 0
198 197 14 0
-198 -197 14 0
-198 197 -14 0
199 198 0
-199 -198 0
200 -196 0
200 -199 0
-200 196 199 0
202 -201 -197 0
202 201 197 0
-202 -201 197 0
-202 201 -197 0
203 202 0
-203 -202 0
204 -200 0
204 -203 0
-204 200 203 0
-206 7 0
-206 197 0
206 -7 -197 0
207 -205 -206 0
207 205 206 0
-207 -205 206 0
-207 205 -206 0
208 207 0
-208 -207 0
209 -204 0
209 -208 0
-209 204 208 0
211 -210 -126 0
211 210 126 0
-211 -210 126 0
-211 210 -126 0
212 211 0
-212 -211 0
213 -209 0
213 -212 0
-213 209 212 0
-215 205 0
-215 210 0
215 -205 -210 0
216 -214 -215 0
216 214 215 0
-216 -214 215 0
-216 214 -215 0
217 216 0
-217 -216 0
218 -213 0
218 -217 0
-218 213 217 0
-221 150 0
-221 220 0
221 -150 -220 0
-223 221 0
-223 222 0
223 -221 -222 0
-225 150 0
-225 224 0
225 -150 -224 0
-226 225 0
-226 214 0
226 -225 -214 0
227 -223 0
227 -226 0
-227 223 226 0
228 -219 -227 0
228 219 227 0
-228 -219 227 0
-228 219 -227 0
229 228 0
-229 -228 0
230 -218 0
230 -229 0
-230 218 229 0
232 -231 -158 0
232 231 158 0
-232 -231 158 0
-232 231 -158 0
233 232 0
-233 -232 0
234 -230 0
234 -233 0
-234 230 233 0
236 -235 -210 0
236 235 210 0
-236 -235 210 0
-236 235 -210 0
237 236 0
-237 -236 0
238 -234 0
238 -237 0
-238 234 237 0
-240 177 0
-240 210 0
240 -177 -210 0
241 -239 -240 0
241 239 240 0
-241 -239 240 0
-241 239 -240 0
242 241 0
-242 -241 0
243 -238 0
243 -242 0
-243 238 242 0
-247 150 0
-247 246 0
247 -150 -246 0
-248 247 0
-248 239 0
248 -247 -239 0
249 -245 0
249 -248 0
-249 245 248 0
250 -244 -249 0
250 244 249 0
-250 -244 249 0
-250 244 -249 0
251 250 0
-251 -250 0
252 -243 0
252 -251 0
-252 243 251 0
-254 154 0
-254 197 0
254 -154 -197 0
255 -253 -254 0
255 253 254 0
-255 -253 254 0
-255 253 -254 0
256 255 0
-256 -255 0
257 -252 0
257 -256 0
-257 252 256 0
259 -258 -253 0
259 258 253 0
-259 -258 253 0
-259 258 -253 0
260 259 0
-260 -259 0
261 -257 0
261 -260 0
-261 257 260 0
263 -262 -167 0
263 262 167 0
-263 -262 167 0
-263 262 -167 0
264 263 0
-264 -263 0
265 -261 0
265 -264 0
-265 261 264 0
268 -266 -267 0
268 266 267 0
-268 -266 267 0
-268 266 -267 0
269 268 0
-269 -268 0
270 -265 0
270 -269 0
-270 265 269 0
-272 205 0
-272 167 0
272 -205 -167 0
273 -271 -272 0
273 271 272 0
-273 -271 272 0
-273 271 -272 0
274 273 0
-274 -273 0
275 -270 0
275 -274 0
-275 270 274 0
-278 150 0
-278 277 0
278 -150 -277 0
-279 278 0
-279 271 0
279 -278 -271 0
280 -276 -279 0
280 276 279 0
-280 -276 279 0
-280 276 -279 0
281 280 0
-281 -280 0
282 -275 0
282 -281 0
-282 275 281 0
285 -283 -284 0
285 283 284 0
-285 -283 284 0
-285 283 -284 0
286 285 0
-286 -285 0
287 -282 0
287 -286 0
-287 282 286 0
289 -288 -31 0
289 288 31 0
-289 -288 31 0
-289 288 -31 0
290 289 0
-290 -289 0
291 -287 0
291 -290 0
-291 287 290 0
-293 163 0
-293 288 0
293 -163 -288 0
294 -292 -293 0
294 292 293 0
-294 -292 293 0
-294 292 -293 0
295 294 0
-295 -294 0
296 -291 0
296 -295 0
-296 291 295 0
-298 253 0
-298 292 0
298 -253 -292 0
299 -297 -298 0
299 297 298 0
-299 -297 298 0
-299 297 -298 0
300 299 0
-300 -299 0
301 -296 0
301 -300 0
-301 296 300 0
-303 205 0
-303 292 0
303 -205 -292 0
304 -302 -303 0
304 302 303 0
-304 -302 303 0
-304 302 -303 0
305 304 0
-305 -304 0
306 -301 0
306 -305 0
-306 301 305 0
-309 150 0
-309 308 0
309 -150 -308 0
-310 309 0
-310 297 0
310 -309 -297 0
311 310 0
-311 -310 0
-313 150 0
-313 312 0
313 -150 -312 0
-314 313 0
-314 302 0
314 -313 -302 0
315 -311 0
315 -314 0
-315 311 314 0
316 -307 -315 0
316 307 315 0
-316 -307 315 0
-316 307 -315 0
317 316 0
-317 -316 0
318 -306 0
318 -317 0
-318 306 317 0
-320 158 0
-320 292 0
320 -158 -292 0
321 -319 -320 0
321 319 320 0
-321 -319 320 0
-321 319 -320 0
322 321 0
-322 -321 0
323 -318 0
323 -322 0
-323 318 322 0
-325 177 0
-325 292 0
325 -177 -292 0
326 -324 -325 0
326 324 325 0
-326 -324 325 0
-326 324 -325 0
327 326 0
-327 -326 0
328 -323 0
328 -327 0
-328 323 327 0
-331 150 0
-331 330 0
331 -150 -330 0
-332 331 0
-332 319 0
332 -331 -319 0
-334 150 0
-334 333 0
334 -150 -333 0
-335 334 0
-335 324 0
335 -334 -324 0
336 -332 0
336 -335 0
-336 332 335 0
337 -329 -336 0
337 329 336 0
-337 -329 336 0
-337 329 -336 0
338 337 0
-338 -337 0
339 -328 0
339 -338 0
-339 328 338 0
-341 24 0
-341 288 0
341 -24 -288 0
342 -340 -341 0
342 340 341 0
-342 -340 341 0
-342 340 -341 0
343 342 0
-343 -342 0
344 -339 0
344 -343 0
-344 339 343 0
-346 253 0
-346 340 0
346 -253 -340 0
347 -345 -346 0
347 345 346 0
-347 -345 346 0
-347 345 -346 0
348 347 0
-348 -347 0
349 -344 0
349 -348 0
-349 344 348 0
351 -350 -205 0
351 350 205 0
-351 -350 205 0
-351 350 -205 0
352 351 0
-352 -351 0
353 -349 0
353 -352 0
-353 349 352 0
355 -354 -340 0
355 354 340 0
-355 -354 340 0
-355 354 -340 0
356 355 0
-356 -355 0
357 -353 0
357 -356 0
-357 353 356 0
-360 150 0
-360 359 0
360 -150 -359 0
-361 360 0
-361 345 0
361 -360 -345 0
363 -361 0
363 -362 0
-363 361 362 0
364 -358 -363 0
364 358 363 0
-364 -358 363 0
-364 358 -363 0
365 364 0
-365 -364 0
366 -357 0
366 -365 0
-366 357 365 0
-368 158 0
-368 340 0
368 -158 -340 0
369 -367 -368 0
369 367 368 0
-369 -367 368 0
-369 367 -368 0
370 369 0
-370 -369 0
371 -366 0
371 -370 0
-371 366 370 0
-373 177 0
-373 340 0
373 -177 -340 0
374 -372 -373 0
374 372 373 0
-374 -372 373 0
-374 372 -373 0
375 374 0
-375 -374 0
376 -371 0
376 -375 0
-376 371 375 0
-379 150 0
-379 378 0
379 -150 -378 0
-380 379 0
-380 367 0
380 -379 -367 0
-382 381 0
-382 372 0
382 -381 -372 0
383 -380 0
383 -382 0
-383 380 382 0
384 -377 -383 0
384 377 383 0
-384 -377 383 0
-384 377 -383 0
385 384 0
-385 -384 0
386 -376 0
386 -385 0
-386 376 385 0
-388 205 0
-388 340 0
388 -205 -340 0
389 -387 -388 0
389 387 388 0
-389 -387 388 0
-389 387 -388 0
390 389 0
-390 -389 0
391 -386 0
391 -390 0
-391 386 390 0
393 -392 -167 0
393 392 167 0
-393 -392 167 0
-393 392 -167 0
394 393 0
-394 -393 0
395 -391 0
395 -394 0
-395 391 394 0
397 -396 -154 0
397 396 154 0
-397 -396 154 0
-397 396 -154 0
398 397 0
-398 -397 0
399 -395 0
399 -398 0
-399 395 398 0
401 -400 -197 0
401 400 197 0
-401 -400 197 0
-401 400 -197 0
402 401 0
-402 -401 0
403 -399 0
403 -402 0
-403 399 402 0
-405 158 0
-405 210 0
405 -158 -210 0
406 -404 -405 0
406 404 405 0
-406 -404 405 0
-406 404 -405 0
407 406 0
-407 -406 0
408 -403 0
408 -407 0
-408 403 407 0
-411 2 0
-411 410 0
411 -2 -410 0
-412 411 0
-412 297 0
412 -411 -297 0
-414 2 0
-414 413 0
414 -2 -413 0
-415 414 0
-415 302 0
415 -414 -302 0
416 -412 0
416 -415 0
-416 412 415 0
-418 2 0
-418 417 0
418 -2 -417 0
-419 418 0
-419 319 0
419 -418 -319 0
-421 2 0
-421 420 0
421 -2 -420 0
-422 421 0
-422 324 0
422 -421 -324 0
423 -419 0
423 -422 0
-423 419 422 0
424 -416 0
424 -423 0
-424 416 423 0
-426 425 0
-426 345 0
426 -425 -345 0
-428 2 0
-428 427 0
428 -2 -427 0
-429 428 0
-429 387 0
429 -428 -387 0
430 -426 0
430 -429 0
-430 426 429 0
-432 2 0
-432 431 0
432 -2 -431 0
-433 432 0
-433 367 0
433 -432 -367 0
-435 2 0
-435 434 0
435 -2 -434 0
-436 435 0
-436 372 0
436 -435 -372 0
437 -433 0
437 -436 0
-437 433 436 0
438 -430 0
438 -437 0
-438 430 437 0
439 -424 0
439 -438 0
-439 424 438 0
-442 2 0
-442 441 0
442 -2 -441 0
-443 442 0
-443 271 0
443 -442 -271 0
444 -440 0
444 -443 0
-444 440 443 0
-446 2 0
-446 445 0
446 -2 -445 0
-447 446 0
-447 172 0
447 -446 -172 0
-449 2 0
-449 448 0
449 -2 -448 0
-450 449 0
-450 181 0
450 -449 -181 0
451 -447 0
451 -450 0
-451 447 450 0
452 -444 0
452 -451 0
-452 444 451 0
-454 2 0
-454 453 0
454 -2 -453 0
-455 454 0
-455 222 0
455 -454 -222 0
-457 2 0
-457 456 0
457 -2 -456 0
-458 457 0
-458 214 0
458 -457 -214 0
459 -455 0
459 -458 0
-459 455 458 0
-461 2 0
-461 460 0
461 -2 -460 0
-462 461 0
-462 404 0
462 -461 -404 0
-464 2 0
-464 463 0
464 -2 -463 0
-465 464 0
-465 239 0
465 -464 -239 0
466 -462 0
466 -465 0
-466 462 465 0
467 -459 0
467 -466 0
-467 459 466 0
468 -452 0
468 -467 0
-468 452 467 0
469 -439 0
469 -468 0
-469 439 468 0
470 -409 0
470 -469 0
-470 409 469 0
-471 1 0
-471 308 0
471 -1 -308 0
-472 471 0
-472 40 0
472 -471 -40 0
-473 1 0
-473 312 0
473 -1 -312 0
-474 473 0
-474 50 0
474 -473 -50 0
475 -472 0
475 -474 0
-475 472 474 0
-476 1 0
-476 330 0
476 -1 -330 0
-477 476 0
-477 60 0
477 -476 -60 0
-478 1 0
-478 333 0
478 -1 -333 0
-479 478 0
-479 70 0
479 -478 -70 0
480 -477 0
480 -479 0
-480 477 479 0
481 -475 0
481 -480 0
-481 475 480 0
-482 1 0
-482 359 0
482 -1 -359 0
-483 482 0
-483 80 0
483 -482 -80 0
-485 1 0
-485 484 0
485 -1 -484 0
-486 485 0
-486 85 0
486 -485 -85 0
487 -483 0
487 -486 0
-487 483 486 0
-488 1 0
-488 378 0
488 -1 -378 0
-489 488 0
-489 90 0
489 -488 -90 0
-491 1 0
-491 490 0
491 -1 -490 0
-492 491 0
-492 95 0
492 -491 -95 0
493 -489 0
493 -492 0
-493 489 492 0
494 -487 0
494 -493 0
-494 487 493 0
495 -481 0
495 -494 0
-495 481 494 0
-497 1 0
-497 496 0
497 -1 -496 0
-498 497 0
-498 105 0
498 -497 -105 0
-499 1 0
-499 277 0
499 -1 -277 0
-500 499 0
-500 110 0
500 -499 -110 0
501 -498 0
501 -500 0
-501 498 500 0
-502 1 0
-502 187 0
502 -1 -187 0
-503 502 0
-503 115 0
503 -502 -115 0
-504 1 0
-504 190 0
504 -1 -190 0
-505 504 0
-505 120 0
505 -504 -120 0
506 -503 0
506 -505 0
-506 503 505 0
507 -501 0
507 -506 0
-507 501 506 0
-508 1 0
-508 220 0
508 -1 -220 0
-509 508 0
-509 130 0
509 -508 -130 0
-510 1 0
-510 224 0
510 -1 -224 0
-511 510 0
-511 135 0
511 -510 -135 0
512 -509 0
512 -511 0
-512 509 511 0
-514 1 0
-514 513 0
514 -1 -513 0
-515 514 0
-515 140 0
515 -514 -140 0
-516 1 0
-516 246 0
516 -1 -246 0
-517 516 0
-517 145 0
517 -516 -145 0
518 -515 0
518 -517 0
-518 515 517 0
519 -512 0
519 -518 0
-519 512 518 0
520 -507 0
520 -519 0
-520 507 519 0
521 -495 0
521 -520 0
-521 495 520 0
-522 411 0
-522 40 0
522 -411 -40 0
-523 414 0
-523 50 0
523 -414 -50 0
524 -522 0
524 -523 0
-524 522 523 0
-525 418 0
-525 60 0
525 -418 -60 0
-526 421 0
-526 70 0
526 -421 -70 0
527 -525 0
527 -526 0
-527 525 526 0
528 -524 0
528 -527 0
-528 524 527 0
-530 2 0
-530 529 0
530 -2 -529 0
-531 530 0
-531 80 0
531 -530 -80 0
-532 428 0
-532 85 0
532 -428 -85 0
533 -531 0
533 -532 0
-533 531 532 0
-534 432 0
-534 90 0
534 -432 -90 0
-535 435 0
-535 95 0
535 -435 -95 0
536 -534 0
536 -535 0
-536 534 535 0
537 -533 0
537 -536 0
-537 533 536 0
538 -528 0
538 -537 0
-538 528 537 0
-540 2 0
-540 539 0
540 -2 -539 0
-541 540 0
-541 105 0
541 -540 -105 0
-542 442 0
-542 110 0
542 -442 -110 0
543 -541 0
543 -542 0
-543 541 542 0
-544 446 0
-544 115 0
544 -446 -115 0
-545 449 0
-545 120 0
545 -449 -120 0
546 -544 0
546 -545 0
-546 544 545 0
547 -543 0
547 -546 0
-547 543 546 0
-548 454 0
-548 130 0
548 -454 -130 0
-549 457 0
-549 135 0
549 -457 -135 0
550 -548 0
550 -549 0
-550 548 549 0
-551 461 0
-551 140 0
551 -461 -140 0
-552 464 0
-552 145 0
552 -464 -145 0
553 -551 0
553 -552 0
-553 551 552 0
554 -550 0
554 -553 0
-554 550 553 0
555 -547 0
555 -554 0
-555 547 554 0
556 -538 0
556 -555 0
-556 538 555 0
557 -521 0
557 -556 0
-557 521 556 0
558 -470 -557 0
558 470 557 0
-558 -470 557 0
-558 470 -557 0
559 -408 0
559 -558 0
-559 408 558 0
559 0
